SetGridsize(256, 64, 1)
SetCellsize(500e-9/128, 125e-9/32, 3e-9)
SetGeom(Ellipsoid(2e-07, 2e-07, 2e-07))

Msat  = 3.45e5
Aex   = 1.2e-11
Ku1=3.3e5
alpha = 0.01

m = vortex(1, 1)
relax()
save(m)    // relaxed state

autosave(m, 30e-12)
tableautosave(100e-12)

f :=30e9
A :=0.1
B_ext = vector(0.1, A*cos(2*pi*f*t), 0)
run(1.5e-9)